(set-logic ALL)
(declare-fun var0 () String)
(assert (str.in_re var0 (re.++ (re.union (re.+ (str.to_re "0")) (re.+ (str.to_re "111"))) (re.++ (re.+ (re.* (str.to_re "222"))) (re.++ (re.* (re.* (str.to_re "333"))) (re.++ (re.union (re.+ (str.to_re "444")) (re.+ (str.to_re "5"))) (re.++ (re.union (re.union (str.to_re "66") (str.to_re "777")) (re.union (str.to_re "88") (str.to_re "999"))) (re.++ (re.+ (re.union (str.to_re "aa") (str.to_re "bbb"))) (re.++ (re.+ (re.+ (str.to_re "cc"))) (re.++ (re.+ (re.+ (str.to_re "ddd"))) (re.++ (re.+ (re.union (str.to_re "e") (str.to_re "fff"))) (re.++ (re.+ (re.* (str.to_re "g"))) (re.++ (re.* (re.* (str.to_re "h"))) (re.++ (re.* (re.* (str.to_re "iii"))) (re.++ (re.+ (re.union (str.to_re "jjj") (str.to_re "kkk"))) (re.++ (re.+ (re.+ (str.to_re "lll"))) (re.union (re.union (str.to_re "mm") (str.to_re "nnn")) (re.union (str.to_re "o") (str.to_re "ppp")))))))))))))))))))
(check-sat)